&CONTROL
   calculation      = 'bands'
   title            = 'Sn'
   verbosity        = 'high'
   restart_mode     = 'from_scratch'
   outdir           = './'
   prefix           = 'Sn'
   lkpoint_dir      = .false.
   etot_conv_thr    = 1e-06
   forc_conv_thr    = 0.0001
   disk_io          = 'default'
   pseudo_dir       = '../PseudopotentialDatabase'
/
&SYSTEM
   ecutwfc          = 100
   occupations      = 'smearing'
   degauss          = 0.0001
   smearing         = 'gaussian'
   noncolin         = .false.
   lspinorb         = .false.
   ntyp             = 1
   nat              = 2
   ibrav            = 0
/
&ELECTRONS
   mixing_beta      = 0.7
/
&IONS
/
&CELL
/

ATOMIC_SPECIES
Sn 118.71 Sn_ONCV_PBE_FR-1.1.upf

K_POINTS crystal_b
45
0.00000000000000 0.00000000000000 0.00000000000000 0
0.06250000000000 0.00000000000000 0.06250000000000 0
0.12500000000000 0.00000000000000 0.12500000000000 0
0.18750000000000 0.00000000000000 0.18750000000000 0
0.25000000000000 0.00000000000000 0.25000000000000 0
0.31250000000000 0.00000000000000 0.31250000000000 0
0.37500000000000 0.00000000000000 0.37500000000000 0
0.43750000000000 0.00000000000000 0.43750000000000 0
0.50000000000000 0.00000000000000 0.50000000000000 0
0.50000000000000 0.06250000000000 0.56250000000000 0
0.50000000000000 0.12500000000000 0.62500000000000 0
0.50000000000000 0.18750000000000 0.68750000000000 0
0.50000000000000 0.25000000000000 0.75000000000000 0
0.50000000000000 0.29166666666667 0.70833333333333 0
0.50000000000000 0.33333333333333 0.66666666666667 0
0.50000000000000 0.37500000000000 0.62500000000000 0
0.50000000000000 0.41666666666667 0.58333333333333 0
0.50000000000000 0.45833333333333 0.54166666666667 0
0.50000000000000 0.50000000000000 0.50000000000000 0
0.43750000000000 0.43750000000000 0.43750000000000 0
0.37500000000000 0.37500000000000 0.37500000000000 0
0.31250000000000 0.31250000000000 0.31250000000000 0
0.25000000000000 0.25000000000000 0.25000000000000 0
0.18750000000000 0.18750000000000 0.18750000000000 0
0.12500000000000 0.12500000000000 0.12500000000000 0
0.06250000000000 0.06250000000000 0.06250000000000 0
0.00000000000000 0.00000000000000 0.00000000000000 0
0.03409090909091 0.03409090909091 0.06818181818182 0
0.06818181818182 0.06818181818182 0.13636363636364 0
0.10227272727273 0.10227272727273 0.20454545454545 0
0.13636363636364 0.13636363636364 0.27272727272727 0
0.17045454545455 0.17045454545455 0.34090909090909 0
0.20454545454545 0.20454545454545 0.40909090909091 0
0.23863636363636 0.23863636363636 0.47727272727273 0
0.27272727272727 0.27272727272727 0.54545454545455 0
0.30681818181818 0.30681818181818 0.61363636363636 0
0.34090909090909 0.34090909090909 0.68181818181818 0
0.37500000000000 0.37500000000000 0.75000000000000 0
0.39285714285714 0.39285714285714 0.71428571428571 0
0.41071428571429 0.41071428571429 0.67857142857143 0
0.42857142857143 0.42857142857143 0.64285714285714 0
0.44642857142857 0.44642857142857 0.60714285714286 0
0.46428571428571 0.46428571428571 0.57142857142857 0
0.48214285714286 0.48214285714286 0.53571428571429 0
0.50000000000000 0.50000000000000 0.50000000000000 0

CELL_PARAMETERS angstrom
0.00000000000000 3.28500000000000 3.28500000000000
3.28500000000000 0.00000000000000 3.28500000000000
3.28500000000000 3.28500000000000 0.00000000000000

ATOMIC_POSITIONS angstrom
Sn 0.0000000000 0.0000000000 0.0000000000 
Sn 1.6425000000 1.6425000000 1.6425000000 

