&CONTROL
   calculation      = 'bands'
   title            = 'Sn'
   verbosity        = 'high'
   restart_mode     = 'from_scratch'
   outdir           = './'
   prefix           = 'Sn'
   lkpoint_dir      = .false.
   etot_conv_thr    = 1e-06
   forc_conv_thr    = 0.0001
   disk_io          = 'default'
   pseudo_dir       = '../PseudopotentialDatabase'
/
&SYSTEM
   ecutwfc          = 80
   occupations      = 'smearing'
   degauss          = 0.0001
   smearing         = 'gaussian'
   noncolin         = .false.
   lspinorb         = .false.
   ntyp             = 1
   nat              = 2
   ibrav            = 0
/
&ELECTRONS
   mixing_beta      = 0.7
   diagonalization  = 'david'
/
&IONS
/
&CELL
/

ATOMIC_SPECIES
Sn 118.71 Sn_ONCV_PBE-1.1.upf

K_POINTS crystal_b
90
0.00000000000000 0.00000000000000 0.00000000000000 0
0.02777777777778 0.00000000000000 0.02777777777778 0
0.05555555555556 0.00000000000000 0.05555555555556 0
0.08333333333333 0.00000000000000 0.08333333333333 0
0.11111111111111 0.00000000000000 0.11111111111111 0
0.13888888888889 0.00000000000000 0.13888888888889 0
0.16666666666667 0.00000000000000 0.16666666666667 0
0.19444444444444 0.00000000000000 0.19444444444444 0
0.22222222222222 0.00000000000000 0.22222222222222 0
0.25000000000000 0.00000000000000 0.25000000000000 0
0.27777777777778 0.00000000000000 0.27777777777778 0
0.30555555555556 0.00000000000000 0.30555555555556 0
0.33333333333333 0.00000000000000 0.33333333333333 0
0.36111111111111 0.00000000000000 0.36111111111111 0
0.38888888888889 0.00000000000000 0.38888888888889 0
0.41666666666667 0.00000000000000 0.41666666666667 0
0.44444444444444 0.00000000000000 0.44444444444444 0
0.47222222222222 0.00000000000000 0.47222222222222 0
0.50000000000000 0.00000000000000 0.50000000000000 0
0.50000000000000 0.02777777777778 0.52777777777778 0
0.50000000000000 0.05555555555556 0.55555555555556 0
0.50000000000000 0.08333333333333 0.58333333333333 0
0.50000000000000 0.11111111111111 0.61111111111111 0
0.50000000000000 0.13888888888889 0.63888888888889 0
0.50000000000000 0.16666666666667 0.66666666666667 0
0.50000000000000 0.19444444444444 0.69444444444444 0
0.50000000000000 0.22222222222222 0.72222222222222 0
0.50000000000000 0.25000000000000 0.75000000000000 0
0.50000000000000 0.26923076923077 0.73076923076923 0
0.50000000000000 0.28846153846154 0.71153846153846 0
0.50000000000000 0.30769230769231 0.69230769230769 0
0.50000000000000 0.32692307692308 0.67307692307692 0
0.50000000000000 0.34615384615385 0.65384615384615 0
0.50000000000000 0.36538461538462 0.63461538461538 0
0.50000000000000 0.38461538461538 0.61538461538462 0
0.50000000000000 0.40384615384615 0.59615384615385 0
0.50000000000000 0.42307692307692 0.57692307692308 0
0.50000000000000 0.44230769230769 0.55769230769231 0
0.50000000000000 0.46153846153846 0.53846153846154 0
0.50000000000000 0.48076923076923 0.51923076923077 0
0.50000000000000 0.50000000000000 0.50000000000000 0
0.46875000000000 0.46875000000000 0.46875000000000 0
0.43750000000000 0.43750000000000 0.43750000000000 0
0.40625000000000 0.40625000000000 0.40625000000000 0
0.37500000000000 0.37500000000000 0.37500000000000 0
0.34375000000000 0.34375000000000 0.34375000000000 0
0.31250000000000 0.31250000000000 0.31250000000000 0
0.28125000000000 0.28125000000000 0.28125000000000 0
0.25000000000000 0.25000000000000 0.25000000000000 0
0.21875000000000 0.21875000000000 0.21875000000000 0
0.18750000000000 0.18750000000000 0.18750000000000 0
0.15625000000000 0.15625000000000 0.15625000000000 0
0.12500000000000 0.12500000000000 0.12500000000000 0
0.09375000000000 0.09375000000000 0.09375000000000 0
0.06250000000000 0.06250000000000 0.06250000000000 0
0.03125000000000 0.03125000000000 0.03125000000000 0
0.00000000000000 0.00000000000000 0.00000000000000 0
0.01785714285714 0.01785714285714 0.03571428571429 0
0.03571428571429 0.03571428571429 0.07142857142857 0
0.05357142857143 0.05357142857143 0.10714285714286 0
0.07142857142857 0.07142857142857 0.14285714285714 0
0.08928571428571 0.08928571428571 0.17857142857143 0
0.10714285714286 0.10714285714286 0.21428571428571 0
0.12500000000000 0.12500000000000 0.25000000000000 0
0.14285714285714 0.14285714285714 0.28571428571429 0
0.16071428571429 0.16071428571429 0.32142857142857 0
0.17857142857143 0.17857142857143 0.35714285714286 0
0.19642857142857 0.19642857142857 0.39285714285714 0
0.21428571428571 0.21428571428571 0.42857142857143 0
0.23214285714286 0.23214285714286 0.46428571428571 0
0.25000000000000 0.25000000000000 0.50000000000000 0
0.26785714285714 0.26785714285714 0.53571428571429 0
0.28571428571429 0.28571428571429 0.57142857142857 0
0.30357142857143 0.30357142857143 0.60714285714286 0
0.32142857142857 0.32142857142857 0.64285714285714 0
0.33928571428571 0.33928571428571 0.67857142857143 0
0.35714285714286 0.35714285714286 0.71428571428571 0
0.37500000000000 0.37500000000000 0.75000000000000 0
0.38541666666667 0.38541666666667 0.72916666666667 0
0.39583333333333 0.39583333333333 0.70833333333333 0
0.40625000000000 0.40625000000000 0.68750000000000 0
0.41666666666667 0.41666666666667 0.66666666666667 0
0.42708333333333 0.42708333333333 0.64583333333333 0
0.43750000000000 0.43750000000000 0.62500000000000 0
0.44791666666667 0.44791666666667 0.60416666666667 0
0.45833333333333 0.45833333333333 0.58333333333333 0
0.46875000000000 0.46875000000000 0.56250000000000 0
0.47916666666667 0.47916666666667 0.54166666666667 0
0.48958333333333 0.48958333333333 0.52083333333333 0
0.50000000000000 0.50000000000000 0.50000000000000 0

CELL_PARAMETERS angstrom
0.00000000000000 3.32600000000000 3.32600000000000
3.32600000000000 0.00000000000000 3.32600000000000
3.32600000000000 3.32600000000000 0.00000000000000

ATOMIC_POSITIONS angstrom
Sn 0.0000000000 0.0000000000 0.0000000000 
Sn 1.6630000000 1.6630000000 1.6630000000 

