&CONTROL
   calculation      = 'bands'
   title            = 'Sn'
   verbosity        = 'high'
   restart_mode     = 'from_scratch'
   outdir           = './'
   prefix           = 'Sn'
   lkpoint_dir      = .false.
   etot_conv_thr    = 1e-06
   forc_conv_thr    = 0.0001
   disk_io          = 'default'
   pseudo_dir       = '../PseudopotentialDatabase'
/
&SYSTEM
   ecutwfc          = 150
   occupations      = 'smearing'
   degauss          = 0.0001
   smearing         = 'gaussian'
   noncolin         = .true.
   lspinorb         = .true.
   ntyp             = 1
   nat              = 2
   ibrav            = 0
/
&ELECTRONS
   mixing_beta      = 0.7
   diagonalization  = 'david'
/
&IONS
/
&CELL
/

ATOMIC_SPECIES
Sn 118.71 Sn_ONCV_PBE-1.0.upf

K_POINTS crystal_b
134
0.00000000000000 0.00000000000000 0.00000000000000 0
0.01851851851852 0.00000000000000 0.01851851851852 0
0.03703703703704 0.00000000000000 0.03703703703704 0
0.05555555555556 0.00000000000000 0.05555555555556 0
0.07407407407407 0.00000000000000 0.07407407407407 0
0.09259259259259 0.00000000000000 0.09259259259259 0
0.11111111111111 0.00000000000000 0.11111111111111 0
0.12962962962963 0.00000000000000 0.12962962962963 0
0.14814814814815 0.00000000000000 0.14814814814815 0
0.16666666666667 0.00000000000000 0.16666666666667 0
0.18518518518519 0.00000000000000 0.18518518518519 0
0.20370370370370 0.00000000000000 0.20370370370370 0
0.22222222222222 0.00000000000000 0.22222222222222 0
0.24074074074074 0.00000000000000 0.24074074074074 0
0.25925925925926 0.00000000000000 0.25925925925926 0
0.27777777777778 0.00000000000000 0.27777777777778 0
0.29629629629630 0.00000000000000 0.29629629629630 0
0.31481481481481 0.00000000000000 0.31481481481481 0
0.33333333333333 0.00000000000000 0.33333333333333 0
0.35185185185185 0.00000000000000 0.35185185185185 0
0.37037037037037 0.00000000000000 0.37037037037037 0
0.38888888888889 0.00000000000000 0.38888888888889 0
0.40740740740741 0.00000000000000 0.40740740740741 0
0.42592592592593 0.00000000000000 0.42592592592593 0
0.44444444444444 0.00000000000000 0.44444444444444 0
0.46296296296296 0.00000000000000 0.46296296296296 0
0.48148148148148 0.00000000000000 0.48148148148148 0
0.50000000000000 0.00000000000000 0.50000000000000 0
0.50000000000000 0.01923076923077 0.51923076923077 0
0.50000000000000 0.03846153846154 0.53846153846154 0
0.50000000000000 0.05769230769231 0.55769230769231 0
0.50000000000000 0.07692307692308 0.57692307692308 0
0.50000000000000 0.09615384615385 0.59615384615385 0
0.50000000000000 0.11538461538462 0.61538461538462 0
0.50000000000000 0.13461538461538 0.63461538461538 0
0.50000000000000 0.15384615384615 0.65384615384615 0
0.50000000000000 0.17307692307692 0.67307692307692 0
0.50000000000000 0.19230769230769 0.69230769230769 0
0.50000000000000 0.21153846153846 0.71153846153846 0
0.50000000000000 0.23076923076923 0.73076923076923 0
0.50000000000000 0.25000000000000 0.75000000000000 0
0.50000000000000 0.26315789473684 0.73684210526316 0
0.50000000000000 0.27631578947368 0.72368421052632 0
0.50000000000000 0.28947368421053 0.71052631578947 0
0.50000000000000 0.30263157894737 0.69736842105263 0
0.50000000000000 0.31578947368421 0.68421052631579 0
0.50000000000000 0.32894736842105 0.67105263157895 0
0.50000000000000 0.34210526315789 0.65789473684211 0
0.50000000000000 0.35526315789474 0.64473684210526 0
0.50000000000000 0.36842105263158 0.63157894736842 0
0.50000000000000 0.38157894736842 0.61842105263158 0
0.50000000000000 0.39473684210526 0.60526315789474 0
0.50000000000000 0.40789473684211 0.59210526315789 0
0.50000000000000 0.42105263157895 0.57894736842105 0
0.50000000000000 0.43421052631579 0.56578947368421 0
0.50000000000000 0.44736842105263 0.55263157894737 0
0.50000000000000 0.46052631578947 0.53947368421053 0
0.50000000000000 0.47368421052632 0.52631578947368 0
0.50000000000000 0.48684210526316 0.51315789473684 0
0.50000000000000 0.50000000000000 0.50000000000000 0
0.48000000000000 0.48000000000000 0.48000000000000 0
0.46000000000000 0.46000000000000 0.46000000000000 0
0.44000000000000 0.44000000000000 0.44000000000000 0
0.42000000000000 0.42000000000000 0.42000000000000 0
0.40000000000000 0.40000000000000 0.40000000000000 0
0.38000000000000 0.38000000000000 0.38000000000000 0
0.36000000000000 0.36000000000000 0.36000000000000 0
0.34000000000000 0.34000000000000 0.34000000000000 0
0.32000000000000 0.32000000000000 0.32000000000000 0
0.30000000000000 0.30000000000000 0.30000000000000 0
0.28000000000000 0.28000000000000 0.28000000000000 0
0.26000000000000 0.26000000000000 0.26000000000000 0
0.24000000000000 0.24000000000000 0.24000000000000 0
0.22000000000000 0.22000000000000 0.22000000000000 0
0.20000000000000 0.20000000000000 0.20000000000000 0
0.18000000000000 0.18000000000000 0.18000000000000 0
0.16000000000000 0.16000000000000 0.16000000000000 0
0.14000000000000 0.14000000000000 0.14000000000000 0
0.12000000000000 0.12000000000000 0.12000000000000 0
0.10000000000000 0.10000000000000 0.10000000000000 0
0.08000000000000 0.08000000000000 0.08000000000000 0
0.06000000000000 0.06000000000000 0.06000000000000 0
0.04000000000000 0.04000000000000 0.04000000000000 0
0.02000000000000 0.02000000000000 0.02000000000000 0
0.00000000000000 0.00000000000000 0.00000000000000 0
0.01209677419355 0.01209677419355 0.02419354838710 0
0.02419354838710 0.02419354838710 0.04838709677419 0
0.03629032258065 0.03629032258065 0.07258064516129 0
0.04838709677419 0.04838709677419 0.09677419354839 0
0.06048387096774 0.06048387096774 0.12096774193548 0
0.07258064516129 0.07258064516129 0.14516129032258 0
0.08467741935484 0.08467741935484 0.16935483870968 0
0.09677419354839 0.09677419354839 0.19354838709677 0
0.10887096774194 0.10887096774194 0.21774193548387 0
0.12096774193548 0.12096774193548 0.24193548387097 0
0.13306451612903 0.13306451612903 0.26612903225806 0
0.14516129032258 0.14516129032258 0.29032258064516 0
0.15725806451613 0.15725806451613 0.31451612903226 0
0.16935483870968 0.16935483870968 0.33870967741935 0
0.18145161290323 0.18145161290323 0.36290322580645 0
0.19354838709677 0.19354838709677 0.38709677419355 0
0.20564516129032 0.20564516129032 0.41129032258065 0
0.21774193548387 0.21774193548387 0.43548387096774 0
0.22983870967742 0.22983870967742 0.45967741935484 0
0.24193548387097 0.24193548387097 0.48387096774194 0
0.25403225806452 0.25403225806452 0.50806451612903 0
0.26612903225806 0.26612903225806 0.53225806451613 0
0.27822580645161 0.27822580645161 0.55645161290323 0
0.29032258064516 0.29032258064516 0.58064516129032 0
0.30241935483871 0.30241935483871 0.60483870967742 0
0.31451612903226 0.31451612903226 0.62903225806452 0
0.32661290322581 0.32661290322581 0.65322580645161 0
0.33870967741935 0.33870967741935 0.67741935483871 0
0.35080645161290 0.35080645161290 0.70161290322581 0
0.36290322580645 0.36290322580645 0.72580645161290 0
0.37500000000000 0.37500000000000 0.75000000000000 0
0.38194444444444 0.38194444444444 0.73611111111111 0
0.38888888888889 0.38888888888889 0.72222222222222 0
0.39583333333333 0.39583333333333 0.70833333333333 0
0.40277777777778 0.40277777777778 0.69444444444444 0
0.40972222222222 0.40972222222222 0.68055555555556 0
0.41666666666667 0.41666666666667 0.66666666666667 0
0.42361111111111 0.42361111111111 0.65277777777778 0
0.43055555555556 0.43055555555556 0.63888888888889 0
0.43750000000000 0.43750000000000 0.62500000000000 0
0.44444444444444 0.44444444444444 0.61111111111111 0
0.45138888888889 0.45138888888889 0.59722222222222 0
0.45833333333333 0.45833333333333 0.58333333333333 0
0.46527777777778 0.46527777777778 0.56944444444444 0
0.47222222222222 0.47222222222222 0.55555555555556 0
0.47916666666667 0.47916666666667 0.54166666666667 0
0.48611111111111 0.48611111111111 0.52777777777778 0
0.49305555555556 0.49305555555556 0.51388888888889 0
0.50000000000000 0.50000000000000 0.50000000000000 0

CELL_PARAMETERS angstrom
0.00000000000000 3.32750000000000 3.32750000000000
3.32750000000000 0.00000000000000 3.32750000000000
3.32750000000000 3.32750000000000 0.00000000000000

ATOMIC_POSITIONS angstrom
Sn 0.0000000000 0.0000000000 0.0000000000 
Sn 1.6637500000 1.6637500000 1.6637500000 

