&CONTROL
   calculation      = 'bands'
   title            = 'Sn'
   verbosity        = 'high'
   restart_mode     = 'from_scratch'
   outdir           = './'
   prefix           = 'Sn'
   lkpoint_dir      = .false.
   etot_conv_thr    = 1e-06
   forc_conv_thr    = 0.0001
   disk_io          = 'default'
   pseudo_dir       = '../PseudopotentialDatabase'
/
&SYSTEM
   ecutwfc          = 80
   occupations      = 'smearing'
   degauss          = 0.0001
   smearing         = 'gaussian'
   noncolin         = .false.
   lspinorb         = .false.
   ntyp             = 1
   nat              = 2
   ibrav            = 0
/
&ELECTRONS
   mixing_beta      = 0.7
   diagonalization  = 'david'
/
&IONS
/
&CELL
/

ATOMIC_SPECIES
Sn 118.71 Sn_ONCV_PBE-1.0.upf

K_POINTS crystal_b
67
0.00000000000000 0.00000000000000 0.00000000000000 0
0.03846153846154 0.00000000000000 0.03846153846154 0
0.07692307692308 0.00000000000000 0.07692307692308 0
0.11538461538462 0.00000000000000 0.11538461538462 0
0.15384615384615 0.00000000000000 0.15384615384615 0
0.19230769230769 0.00000000000000 0.19230769230769 0
0.23076923076923 0.00000000000000 0.23076923076923 0
0.26923076923077 0.00000000000000 0.26923076923077 0
0.30769230769231 0.00000000000000 0.30769230769231 0
0.34615384615385 0.00000000000000 0.34615384615385 0
0.38461538461538 0.00000000000000 0.38461538461538 0
0.42307692307692 0.00000000000000 0.42307692307692 0
0.46153846153846 0.00000000000000 0.46153846153846 0
0.50000000000000 0.00000000000000 0.50000000000000 0
0.50000000000000 0.04166666666667 0.54166666666667 0
0.50000000000000 0.08333333333333 0.58333333333333 0
0.50000000000000 0.12500000000000 0.62500000000000 0
0.50000000000000 0.16666666666667 0.66666666666667 0
0.50000000000000 0.20833333333333 0.70833333333333 0
0.50000000000000 0.25000000000000 0.75000000000000 0
0.50000000000000 0.27777777777778 0.72222222222222 0
0.50000000000000 0.30555555555556 0.69444444444444 0
0.50000000000000 0.33333333333333 0.66666666666667 0
0.50000000000000 0.36111111111111 0.63888888888889 0
0.50000000000000 0.38888888888889 0.61111111111111 0
0.50000000000000 0.41666666666667 0.58333333333333 0
0.50000000000000 0.44444444444444 0.55555555555556 0
0.50000000000000 0.47222222222222 0.52777777777778 0
0.50000000000000 0.50000000000000 0.50000000000000 0
0.45833333333333 0.45833333333333 0.45833333333333 0
0.41666666666667 0.41666666666667 0.41666666666667 0
0.37500000000000 0.37500000000000 0.37500000000000 0
0.33333333333333 0.33333333333333 0.33333333333333 0
0.29166666666667 0.29166666666667 0.29166666666667 0
0.25000000000000 0.25000000000000 0.25000000000000 0
0.20833333333333 0.20833333333333 0.20833333333333 0
0.16666666666667 0.16666666666667 0.16666666666667 0
0.12500000000000 0.12500000000000 0.12500000000000 0
0.08333333333333 0.08333333333333 0.08333333333333 0
0.04166666666667 0.04166666666667 0.04166666666667 0
0.00000000000000 0.00000000000000 0.00000000000000 0
0.02343750000000 0.02343750000000 0.04687500000000 0
0.04687500000000 0.04687500000000 0.09375000000000 0
0.07031250000000 0.07031250000000 0.14062500000000 0
0.09375000000000 0.09375000000000 0.18750000000000 0
0.11718750000000 0.11718750000000 0.23437500000000 0
0.14062500000000 0.14062500000000 0.28125000000000 0
0.16406250000000 0.16406250000000 0.32812500000000 0
0.18750000000000 0.18750000000000 0.37500000000000 0
0.21093750000000 0.21093750000000 0.42187500000000 0
0.23437500000000 0.23437500000000 0.46875000000000 0
0.25781250000000 0.25781250000000 0.51562500000000 0
0.28125000000000 0.28125000000000 0.56250000000000 0
0.30468750000000 0.30468750000000 0.60937500000000 0
0.32812500000000 0.32812500000000 0.65625000000000 0
0.35156250000000 0.35156250000000 0.70312500000000 0
0.37500000000000 0.37500000000000 0.75000000000000 0
0.38750000000000 0.38750000000000 0.72500000000000 0
0.40000000000000 0.40000000000000 0.70000000000000 0
0.41250000000000 0.41250000000000 0.67500000000000 0
0.42500000000000 0.42500000000000 0.65000000000000 0
0.43750000000000 0.43750000000000 0.62500000000000 0
0.45000000000000 0.45000000000000 0.60000000000000 0
0.46250000000000 0.46250000000000 0.57500000000000 0
0.47500000000000 0.47500000000000 0.55000000000000 0
0.48750000000000 0.48750000000000 0.52500000000000 0
0.50000000000000 0.50000000000000 0.50000000000000 0

CELL_PARAMETERS angstrom
0.00000000000000 3.32750000000000 3.32750000000000
3.32750000000000 0.00000000000000 3.32750000000000
3.32750000000000 3.32750000000000 0.00000000000000

ATOMIC_POSITIONS angstrom
Sn 0.0000000000 0.0000000000 0.0000000000 
Sn 1.6637500000 1.6637500000 1.6637500000 

